============================[ Problem Statistics ]=============================|                                                                             ||  Number of variables:          4242                                         ||  Number of clauses:           10196                                         ||  Parse time:                   0.58 s                                       ||                                                                             |============================[ Search Statistics ]==============================| Conflicts |          ORIGINAL         |          LEARNT          | Progress ||           |    Vars  Clauses Literals |    Limit  Clauses Lit/Cl |          |===============================================================================|       100 |    1591     6401   931392 |     2347      100     53 | 62.501 % ||       250 |    1591     6401   931392 |     2581      250     75 | 62.495 % |===============================================================================restarts              : 3conflicts             : 322            (365 /sec)decisions             : 587            (0.00 % random) (666 /sec)propagations          : 11897          (13504 /sec)conflict literals     : 25762          (94.68 % deleted)CPU time              : 0.881 sSATISFIABLE